scripts/logs/SAT-p4-free/bwp_6_5_1.SAT.log.out
dg jun 3 19:20:24 CEST 2018
    [1;34mTry max length:[0m 999999
    [1;34m    At iteration:[0m 0
        lingeling found a solution in .034 ms

      | W
    L | 0 1 2 3 4 5 
    ----------------
    0 | . . 2 . . . 
    1 | . . . . . 4 
    2 | . . . 1 3 . 
    3 | . . . . . . 
    4 | . . . 5 . . 
    
    Boxes' corners:      (w,l)
        Box 1 is at 
            top left     (3,2)
            bottom right (3,2)
    
        Box 2 is at 
            top left     (2,0)
            bottom right (2,0)
    
        Box 3 is at 
            top left     (4,2)
            bottom right (4,2)
    
        Box 4 is at 
            top left     (5,1)
            bottom right (5,1)
    
        Box 5 is at 
            top left     (3,4)
            bottom right (3,4)
    
        Roll length used: 5

    [1;34mTry max length:[0m 4
    [1;34m    At iteration:[0m 1
        lingeling found a solution in .026 ms

      | W
    L | 0 1 2 3 4 5 
    ----------------
    0 | 1 . . 5 . . 
    1 | . . . . . . 
    2 | . 3 . . 2 . 
    3 | . . . 4 . . 
    
    Boxes' corners:      (w,l)
        Box 1 is at 
            top left     (0,0)
            bottom right (0,0)
    
        Box 2 is at 
            top left     (4,2)
            bottom right (4,2)
    
        Box 3 is at 
            top left     (1,2)
            bottom right (1,2)
    
        Box 4 is at 
            top left     (3,3)
            bottom right (3,3)
    
        Box 5 is at 
            top left     (3,0)
            bottom right (3,0)
    
        Roll length used: 4

    [1;34mTry max length:[0m 3
    [1;34m    At iteration:[0m 2
        lingeling found a solution in .020 ms

      | W
    L | 0 1 2 3 4 5 
    ----------------
    0 | . . 2 . . . 
    1 | . . . 3 5 . 
    2 | . . . . 4 1 
    
    Boxes' corners:      (w,l)
        Box 1 is at 
            top left     (5,2)
            bottom right (5,2)
    
        Box 2 is at 
            top left     (2,0)
            bottom right (2,0)
    
        Box 3 is at 
            top left     (3,1)
            bottom right (3,1)
    
        Box 4 is at 
            top left     (4,2)
            bottom right (4,2)
    
        Box 5 is at 
            top left     (4,1)
            bottom right (4,1)
    
        Roll length used: 3

    [1;34mTry max length:[0m 2
    [1;34m    At iteration:[0m 3
        lingeling found a solution in .018 ms

      | W
    L | 0 1 2 3 4 5 
    ----------------
    0 | 2 5 . . 3 1 
    1 | . . 4 . . . 
    
    Boxes' corners:      (w,l)
        Box 1 is at 
            top left     (5,0)
            bottom right (5,0)
    
        Box 2 is at 
            top left     (0,0)
            bottom right (0,0)
    
        Box 3 is at 
            top left     (4,0)
            bottom right (4,0)
    
        Box 4 is at 
            top left     (2,1)
            bottom right (2,1)
    
        Box 5 is at 
            top left     (1,0)
            bottom right (1,0)
    
        Roll length used: 2

    [1;34mTry max length:[0m 1
    [1;34m    At iteration:[0m 4
        lingeling found a solution in .012 ms

      | W
    L | 0 1 2 3 4 5 
    ----------------
    0 | . 3 1 4 5 2 
    
    Boxes' corners:      (w,l)
        Box 1 is at 
            top left     (2,0)
            bottom right (2,0)
    
        Box 2 is at 
            top left     (5,0)
            bottom right (5,0)
    
        Box 3 is at 
            top left     (1,0)
            bottom right (1,0)
    
        Box 4 is at 
            top left     (3,0)
            bottom right (3,0)
    
        Box 5 is at 
            top left     (4,0)
            bottom right (4,0)
    
        Roll length used: 1

    [1;34mTry max length:[0m 0
    [1;34m    At iteration:[0m 5
        [3;31mlingeling determined unsatisfiability of the Boolean formula[0m
        [1;32mOptimality reached![0m
